8861
1 1 1 1 1 0 1 0 1 0 
8 2 1 6 3 8 2 4 4 1 4 0 3 2 8 3 2 0 6 4 3 4 6 4 0 6 3 1 0 1 2 6 0 3 4 4 4 3 0 4 3 8 1 6 4 0 2 0 4 2 
7989
1 1 1 1 1 1 1 0 1 1 
0 2 1 6 3 8 2 4 4 1 9 5 3 2 8 3 4 0 9 4 3 8 6 4 2 6 1 6 0 1 2 6 0 3 9 4 4 3 0 4 2 8 1 6 4 0 4 0 4 3 
9314
1 1 1 1 1 0 1 0 1 0 
8 2 1 6 4 8 2 4 4 1 4 0 3 2 8 3 2 0 6 4 3 4 6 4 2 6 1 6 0 1 2 6 0 3 4 4 4 3 0 3 3 8 1 6 4 0 2 0 4 0 
10714
1 1 1 1 1 0 1 1 1 0 
8 2 1 6 3 8 2 4 4 1 4 0 3 2 8 3 2 0 6 4 3 4 6 4 2 6 1 6 0 1 2 6 0 3 4 4 4 3 0 4 3 8 1 6 4 0 2 7 4 0 
9023
1 1 1 1 1 1 0 0 1 1 
8 8 1 5 8 8 2 4 4 1 9 8 3 2 8 3 2 0 9 9 3 8 9 4 5 5 1 5 0 5 2 5 0 3 9 4 4 3 0 4 1 3 1 5 4 0 2 3 4 0 
7802
1 1 1 1 1 0 1 1 1 1 
8 2 1 6 3 8 2 4 4 9 9 8 3 2 8 3 4 0 9 7 3 8 6 4 2 6 1 1 8 1 2 6 0 3 9 4 4 3 0 4 1 8 1 6 7 0 9 0 7 0 
9488
1 1 1 1 1 0 1 0 1 1 
8 8 1 6 3 8 2 4 4 1 9 8 3 2 8 3 9 0 9 9 3 8 6 4 2 6 1 1 0 1 2 6 0 3 9 4 4 3 0 4 1 8 1 6 4 0 2 3 4 0 
11584
1 1 1 1 1 1 0 1 1 1 
8 8 1 5 3 8 2 4 4 1 9 8 3 2 8 3 4 0 9 7 3 8 9 4 2 5 1 5 0 9 2 5 0 3 9 4 4 3 0 4 1 8 1 5 7 0 2 3 7 0 
8576
1 1 1 1 1 0 1 0 1 1 
8 8 1 6 3 8 2 4 4 1 9 8 3 2 8 3 4 0 9 4 3 8 6 4 2 6 1 1 0 1 2 6 0 3 9 8 4 3 0 4 1 8 1 6 4 0 2 0 4 0 
7627
1 1 1 1 1 0 1 0 1 0 
8 8 1 6 3 8 2 4 4 1 4 8 3 2 8 3 2 0 6 4 3 1 6 4 2 6 1 1 0 1 2 6 0 3 4 4 4 3 0 4 1 8 8 6 4 0 2 0 4 0 
9027
1 1 1 1 1 0 1 0 1 0 
8 8 1 6 3 8 2 4 4 1 4 8 3 2 8 3 2 0 6 4 3 8 6 4 2 6 1 1 0 1 2 6 4 3 4 4 4 3 0 4 1 8 1 6 0 0 2 0 4 0 
10132
1 1 1 0 1 0 1 0 1 0 
8 8 1 6 1 1 2 4 4 1 4 8 0 2 8 0 2 0 6 4 1 8 6 4 2 6 1 1 8 1 2 6 0 0 4 4 4 1 0 4 1 8 1 6 4 0 2 0 4 0 
8987
0 1 0 0 0 0 1 0 0 1 1 0 1 1 1 1 1 1 0 0 
16 12 10 10 12 15 17 13 14 17 15 1 1 6 13 12 10 10 17 9 12 15 15 13 6 17 16 17 1 17 13 15 13 16 12 15 12 1 1 13 6 16 16 16 9 15 14 10 1 9 
7137
0 0 0 1 0 0 0 0 0 1 1 0 0 1 1 1 1 1 0 1 
16 3 10 10 19 13 10 13 14 17 15 19 19 17 13 3 15 10 17 9 14 15 15 19 9 17 16 17 3 17 13 15 13 16 3 10 3 19 19 13 9 16 15 16 3 13 14 10 19 9 
8835
0 0 0 1 0 0 1 0 0 0 1 0 0 1 0 1 1 1 0 1 
16 13 10 10 19 13 17 13 3 17 15 19 19 6 13 3 15 10 17 6 15 15 15 19 6 17 16 17 3 17 3 15 13 16 3 10 3 19 19 13 6 16 16 16 3 13 15 10 19 6 
11168
0 0 0 0 0 0 0 1 0 1 1 1 0 0 0 0 1 1 1 1 
16 11 19 10 19 18 17 18 7 17 7 19 19 10 18 11 7 10 17 9 18 18 7 19 9 17 16 17 19 17 18 7 18 16 11 10 11 19 19 18 9 16 16 16 11 18 7 10 10 9 
8265
1 1 0 0 0 0 0 0 1 1 1 0 1 1 0 1 0 1 0 1 
0 12 10 10 1 12 17 13 12 17 15 19 1 10 13 12 15 10 17 9 12 15 15 19 9 1 0 17 1 17 13 15 13 0 1 10 17 19 19 8 9 0 15 0 9 13 12 10 19 9 
7152
1 0 0 1 0 0 0 0 0 1 1 0 0 1 1 1 0 1 1 1 
0 3 10 10 19 15 17 13 14 18 15 19 19 10 13 3 15 10 17 9 14 15 15 19 9 17 0 17 3 17 13 15 13 0 3 10 3 19 19 13 9 0 15 0 3 13 14 10 19 9 
9138
0 0 0 1 0 1 0 1 0 1 1 0 0 1 0 1 1 1 0 1 
16 3 10 10 19 15 17 13 3 17 15 19 19 5 13 3 15 10 17 9 15 15 15 19 9 17 16 17 3 17 13 7 13 16 3 10 3 19 19 13 9 16 15 16 3 13 7 10 19 9 
11510
0 1 0 0 0 0 0 0 0 0 1 1 0 1 0 1 1 1 1 0 
16 1 10 10 1 18 17 13 1 17 15 1 1 10 13 11 15 10 17 11 18 15 15 18 11 17 16 17 1 17 13 15 13 16 11 10 11 18 1 13 11 16 15 16 1 15 18 10 13 11 
8144
1 1 0 0 0 0 0 0 0 1 1 0 0 1 1 1 0 1 0 1 
0 1 10 10 1 15 17 13 14 17 15 19 1 10 13 14 15 10 14 9 14 15 15 19 9 17 0 17 1 17 13 15 13 0 1 10 17 19 19 13 10 0 0 0 9 13 17 10 19 9 
7266
1 0 0 0 0 0 1 0 1 0 1 0 1 1 0 1 0 1 0 1 
0 12 10 10 19 12 17 13 12 0 15 19 19 6 13 12 15 10 17 6 12 15 15 19 6 17 17 17 12 17 13 15 13 0 17 10 8 19 19 13 6 0 0 0 8 13 12 10 19 8 
9050
0 1 1 0 0 0 0 0 0 1 1 0 0 1 1 1 1 1 0 0 
16 1 10 10 1 15 17 13 14 17 15 1 1 10 13 2 15 10 17 9 14 15 15 13 9 17 16 17 1 17 13 15 13 16 1 10 17 1 1 13 10 16 15 16 9 13 14 10 1 9 
10346
1 0 0 1 0 0 0 0 0 1 1 0 0 1 0 1 0 1 0 1 
0 3 10 10 19 15 17 13 3 10 15 19 19 10 13 3 15 10 17 9 15 15 15 19 9 17 0 17 3 17 13 15 13 0 3 10 3 19 19 13 10 0 0 0 3 13 15 17 19 9 
12598
1 0 1 0 0 1 0 1 1 0 0 1 0 0 1 0 0 1 0 0 1 0 0 0 1 1 0 0 0 0 
20 11 20 14 20 5 2 24 14 17 24 8 8 20 7 14 14 17 5 11 2 0 5 7 5 8 2 24 5 24 5 25 20 25 20 20 24 24 0 14 0 14 24 8 24 14 0 20 11 8 5 14 14 5 20 20 17 11 11 14 0 5 20 11 11 11 24 0 24 24 20 20 11 17 24 8 24 20 14 24 20 7 20 17 2 17 2 7 20 5 2 24 17 11 7 5 2 14 25 11 8 17 17 25 2 25 7 11 14 8 14 14 2 11 20 25 24 24 24 24 5 8 25 20 8 0 5 24 0 25 0 11 24 5 8 14 7 5 20 17 0 8 20 14 8 25 25 5 2 5 
11306
1 0 1 0 0 1 0 1 1 0 0 1 0 0 1 0 0 1 0 0 1 0 0 0 1 1 0 1 0 0 
20 11 20 14 20 5 2 24 14 17 24 8 8 20 7 14 14 17 5 11 2 0 5 7 5 8 2 24 5 24 5 25 20 25 20 20 24 24 0 14 0 14 24 8 24 14 0 20 11 8 5 14 14 5 20 20 17 11 0 14 0 5 20 11 11 11 24 0 24 24 20 20 11 17 24 8 24 20 14 24 20 7 20 17 2 17 2 7 20 5 2 24 17 11 7 24 2 14 25 20 8 17 17 25 2 25 27 11 14 8 14 14 2 11 11 25 24 24 24 24 5 8 25 20 8 0 5 24 0 25 0 11 24 5 8 14 7 5 20 17 0 8 20 14 8 25 25 5 2 5 
13506
1 0 1 0 0 1 0 1 1 0 0 1 0 0 1 0 0 1 0 0 1 0 0 0 1 1 1 0 0 0 
20 11 20 14 20 5 2 24 14 17 24 8 8 20 7 14 14 17 5 11 2 0 5 7 5 8 2 24 5 24 5 25 20 25 20 20 24 24 0 14 0 14 24 8 24 14 0 20 11 8 26 14 14 5 20 20 17 11 0 14 0 5 20 11 11 11 24 0 24 24 20 20 11 17 24 8 24 20 14 24 20 7 20 17 2 17 2 7 20 5 2 24 17 11 7 5 2 14 25 20 8 17 17 25 2 25 7 11 14 8 14 14 2 11 11 25 24 24 24 24 5 8 25 20 8 0 5 24 0 25 0 11 24 5 8 14 7 5 20 17 0 8 20 14 8 25 25 5 2 5 
15022
1 0 1 0 0 1 0 0 1 0 0 1 0 0 1 1 0 1 0 0 1 0 0 0 1 1 0 0 0 0 
20 11 20 14 20 5 2 24 14 17 24 8 8 20 0 14 14 17 5 11 2 0 5 0 5 8 2 24 5 24 5 25 20 25 20 20 24 24 15 14 0 14 24 8 24 14 0 20 11 8 5 14 14 5 20 20 17 11 11 14 0 5 20 11 11 11 24 0 24 24 20 20 11 17 24 8 24 20 14 24 20 0 20 17 2 17 2 0 20 5 2 24 17 11 0 5 2 14 25 20 8 17 17 25 2 25 0 11 14 8 14 14 2 11 11 25 24 24 24 24 5 8 25 20 8 0 5 24 0 25 0 11 24 5 8 14 0 5 20 17 0 8 20 14 8 25 25 5 2 5 
12647
1 0 1 0 0 1 1 0 1 0 0 1 0 0 1 1 0 1 0 0 1 0 0 0 1 1 0 0 0 0 
0 11 6 2 20 5 2 24 14 17 5 8 8 20 2 14 14 17 25 11 2 0 5 17 5 8 2 24 5 24 25 25 6 25 20 20 24 15 0 14 0 14 15 8 24 14 0 20 11 8 25 14 14 5 6 20 17 11 0 14 0 5 20 11 11 11 24 0 5 5 8 6 11 17 24 8 24 20 2 24 20 0 20 17 2 17 17 0 20 5 2 24 17 11 17 24 2 2 25 8 8 17 17 25 2 25 17 11 14 8 14 14 2 11 11 25 24 15 24 24 5 8 25 20 8 0 5 15 0 25 0 11 24 25 8 14 17 5 20 17 0 8 20 14 8 25 25 5 2 5 
11674
1 0 1 0 0 1 0 0 1 0 0 1 0 1 1 0 0 1 0 0 1 0 0 0 1 1 0 0 0 1 
20 11 13 2 20 5 2 24 14 17 29 8 8 20 17 14 14 17 25 11 2 0 29 17 29 8 2 24 5 5 29 25 13 25 20 20 24 24 0 14 0 14 24 8 24 14 0 13 11 25 29 14 14 5 13 20 17 11 11 14 0 5 20 11 11 11 24 0 29 29 20 20 11 17 24 8 5 20 2 24 20 0 13 17 2 17 17 0 20 5 2 24 17 11 17 5 2 2 25 13 8 17 17 25 2 29 17 11 14 8 14 14 2 11 11 25 24 24 5 24 5 8 25 13 8 0 5 5 0 8 0 11 24 29 8 14 0 5 20 17 0 8 20 14 8 25 25 5 2 5 
14074
1 0 1 0 0 1 0 0 1 0 0 1 0 1 1 0 0 1 0 0 1 0 0 0 1 1 0 0 0 1 
20 11 13 2 20 5 2 24 14 17 29 8 8 20 17 14 14 17 25 11 2 0 29 17 29 8 2 24 5 5 29 25 13 25 20 20 11 24 0 14 0 14 24 8 24 14 0 13 11 8 29 14 14 5 13 20 17 11 0 14 0 5 20 11 11 11 24 0 29 29 20 20 11 17 24 8 5 20 2 24 20 0 13 17 2 17 17 0 20 5 2 24 17 11 17 5 2 2 25 13 8 17 17 25 2 29 17 11 14 8 14 14 2 11 24 25 24 24 5 24 5 8 25 13 8 0 5 5 0 25 0 11 24 29 8 14 0 5 20 17 0 8 20 14 8 25 25 5 2 5 
16514
1 0 1 0 1 1 0 1 1 0 0 1 0 1 1 0 0 1 0 0 1 0 0 0 1 1 0 0 0 0 
20 11 13 2 20 5 2 24 14 17 5 8 8 20 17 14 14 17 25 11 2 0 25 17 25 8 2 24 5 5 25 25 13 25 20 20 24 24 0 14 0 14 24 8 24 14 0 13 11 8 25 14 14 5 13 20 17 11 11 14 0 5 20 11 11 11 24 0 24 25 20 20 11 17 24 8 24 20 2 5 20 7 13 17 17 17 17 7 20 5 2 24 17 11 17 5 2 2 25 13 8 17 17 25 2 25 7 11 14 8 14 14 2 11 11 11 24 24 5 24 5 8 25 13 8 0 5 25 0 25 0 11 24 11 8 14 7 5 20 17 0 8 4 14 8 25 25 5 2 5 
12414
1 0 1 0 0 1 0 0 1 0 0 1 0 0 1 1 0 1 0 0 1 0 0 0 1 1 0 0 0 0 
20 11 20 2 20 5 2 24 14 17 24 8 8 20 17 14 14 17 5 11 2 0 5 17 5 8 2 24 5 24 5 25 8 25 20 20 24 15 0 14 0 14 15 8 24 14 0 20 11 8 5 14 14 5 20 20 17 11 0 14 0 5 20 11 11 11 24 0 5 24 8 20 11 17 24 8 24 20 14 24 20 0 5 17 17 17 17 0 20 5 2 24 17 11 17 5 2 2 25 20 8 17 17 25 2 25 17 11 14 8 14 14 2 11 11 25 24 24 24 24 5 8 25 20 8 0 5 24 0 25 0 11 24 20 8 14 17 5 20 17 0 8 20 14 8 25 25 5 2 5 
11004
1 0 1 0 0 1 0 0 1 0 1 1 0 0 1 0 0 1 0 0 1 0 0 0 1 1 0 0 0 0 
20 11 20 2 20 5 2 24 14 17 5 8 8 20 17 14 14 17 5 11 2 0 5 17 5 8 2 24 5 24 5 25 8 25 20 20 24 24 0 14 0 14 24 10 24 14 0 20 11 8 5 14 14 5 20 20 17 11 11 14 0 5 20 11 11 11 24 0 24 5 8 20 11 17 24 8 24 20 14 24 20 0 20 17 17 17 17 0 20 5 2 24 17 11 17 5 2 2 25 20 8 17 17 25 2 25 17 11 14 8 14 14 2 11 11 25 24 24 24 24 5 8 25 20 8 0 5 24 0 25 0 11 24 5 8 14 17 5 20 17 0 8 20 14 8 25 25 5 2 5 
13485
1 0 1 0 0 1 0 0 1 1 0 1 0 1 1 0 0 1 0 0 1 0 0 0 1 1 0 0 0 0 
20 11 13 2 20 5 2 9 14 17 5 8 8 20 17 14 14 17 5 11 2 0 5 17 5 8 2 24 5 24 5 25 13 25 20 20 24 24 0 14 0 14 24 8 24 14 0 13 11 8 5 14 14 5 13 20 17 11 11 14 0 5 20 11 11 11 24 0 5 5 20 20 11 17 24 8 24 20 14 24 20 0 13 17 17 17 17 0 20 5 2 24 17 11 17 5 2 2 25 20 8 17 17 25 2 25 17 11 14 8 14 14 2 11 11 25 24 24 24 24 5 8 25 13 8 0 5 24 0 25 0 11 24 5 8 14 17 5 20 17 0 8 20 14 8 25 25 5 2 5 
15685
1 0 1 0 1 1 0 0 1 0 0 1 0 1 1 0 0 1 0 0 1 0 0 0 1 1 0 0 0 0 
20 11 13 2 20 5 2 24 14 17 5 8 8 20 17 14 14 17 5 11 2 0 5 17 5 8 2 24 5 24 5 25 20 25 20 20 24 24 0 14 0 14 24 8 24 14 0 13 11 8 5 14 14 5 13 20 17 11 0 14 0 5 20 11 11 11 24 0 5 5 20 20 11 17 24 8 24 20 14 24 20 0 13 17 17 17 17 0 20 5 2 24 17 11 17 24 2 2 25 13 8 17 17 25 2 25 17 11 14 8 14 14 2 11 11 25 24 24 24 24 5 8 25 13 8 0 5 24 0 25 0 11 24 5 8 14 17 5 20 17 0 8 20 14 4 25 25 5 2 5 
12200
1 0 1 0 0 1 0 0 1 0 0 1 0 0 1 0 0 1 0 0 1 0 0 0 1 1 0 0 0 0 
20 11 20 2 20 5 2 24 14 17 17 8 8 20 17 14 14 17 5 11 2 0 5 17 5 8 2 24 5 24 5 25 20 25 20 20 24 24 0 14 0 14 24 8 24 14 0 20 11 8 5 14 14 5 20 20 17 11 11 14 0 5 20 11 11 11 24 0 24 24 20 20 11 24 24 8 24 20 14 24 20 0 20 17 17 17 17 0 20 5 2 24 17 11 17 24 2 2 25 20 8 17 17 25 2 25 17 11 14 8 14 14 2 11 11 25 24 24 24 24 5 8 25 20 8 0 5 24 0 25 0 11 24 5 8 14 17 5 20 17 0 8 20 14 8 25 25 5 2 5 
10984
1 0 1 0 0 1 0 0 1 0 0 1 0 0 1 0 0 1 0 0 1 0 0 0 1 1 0 0 0 0 
20 11 20 2 20 5 2 24 14 17 24 8 8 20 17 14 14 17 5 11 2 0 5 17 0 8 2 24 5 24 5 25 20 25 20 20 24 24 0 14 0 14 24 8 24 14 0 20 11 8 5 14 14 5 20 20 17 11 11 14 0 5 20 11 11 11 24 0 5 24 20 20 11 17 24 8 24 20 14 24 20 0 20 17 17 17 17 0 20 5 2 24 17 11 17 5 2 2 25 20 8 17 17 25 2 25 17 11 14 8 14 14 2 11 11 25 24 24 24 24 5 8 25 20 8 0 5 24 0 25 0 11 24 5 8 14 17 5 20 17 0 8 20 14 8 25 25 5 2 5 
12984
1 0 1 0 0 1 0 0 1 0 0 1 0 0 1 0 0 1 0 0 1 0 0 0 1 1 0 0 0 0 
20 11 20 2 20 5 2 24 14 17 24 8 8 20 17 14 14 17 5 11 2 0 5 17 5 8 2 24 5 24 5 25 20 25 20 20 24 24 0 14 0 14 24 8 24 14 0 20 11 5 5 14 14 5 20 20 17 11 11 14 0 5 20 11 11 11 24 0 5 24 20 20 11 17 24 8 24 20 14 24 20 0 20 17 17 17 17 0 20 5 2 24 17 11 17 24 2 2 25 20 8 17 17 25 2 25 17 11 14 8 14 14 2 11 11 25 24 24 24 24 8 8 25 20 8 0 5 24 0 25 0 11 24 5 8 14 17 5 20 17 0 8 20 14 8 25 25 5 2 5 
14984
1 0 1 0 0 1 0 0 1 0 0 1 0 0 1 0 0 1 0 0 1 0 0 0 1 1 0 0 0 0 
20 11 20 2 20 5 2 24 14 17 24 8 8 20 17 14 14 17 5 11 2 0 5 17 5 8 2 24 24 24 5 25 20 25 20 20 24 24 0 14 0 14 24 8 24 14 0 20 11 8 5 14 14 5 20 20 17 11 11 14 0 5 20 11 11 11 24 0 5 24 20 20 11 17 24 8 24 20 14 24 20 0 20 17 17 17 17 0 20 5 2 24 17 11 17 5 2 2 25 20 8 17 17 25 2 25 17 11 14 8 14 14 2 11 11 25 24 24 24 24 5 8 25 20 8 0 5 24 0 25 0 11 24 5 8 14 17 5 20 17 0 8 20 14 8 25 25 5 2 5 
6899
1 0 1 1 1 1 1 1 0 1 
5 6 4 6 7 9 3 7 5 3 4 6 2 6 2 7 7 3 0 6 6 6 4 4 6 5 5 4 5 5 0 0 0 0 3 6 2 6 6 9 2 7 3 3 3 5 0 5 6 4 4 6 6 6 9 7 2 3 3 3 0 0 6 5 0 6 6 6 4 4 0 4 4 0 7 7 2 2 9 5 7 2 2 7 9 7 9 9 9 2 
6701
1 1 0 1 0 1 1 0 0 0 1 1 0 0 0 0 1 0 1 1 
3 10 11 5 19 18 16 3 16 1 11 18 19 10 19 0 0 3 10 10 5 11 5 11 16 11 11 16 16 3 1 19 19 18 10 10 10 0 0 1 1 3 3 16 11 5 18 19 0 19 16 1 1 3 3 5 16 5 10 5 6 11 3 3 11 3 0 0 19 19 10 18 19 19 19 18 18 18 19 19 
6005
1 1 0 0 0 0 0 0 0 1 0 0 0 0 0 0 0 0 1 0 0 0 1 1 0 0 0 1 1 0 
18 22 18 23 23 22 9 0 27 23 23 23 27 9 18 18 22 18 18 0 0 9 22 22 22 23 27 18 27 27 27 23 23 23 0 22 1 1 18 18 27 1 28 23 28 9 9 22 9 18 22 0 9 18 18 18 0 22 23 28 27 27 1 28 27 28 1 27 28 27 
7128
1 1 1 1 1 1 1 1 1 1 
4 4 4 4 4 4 4 4 0 0 6 0 0 0 0 0 1 4 1 7 1 1 1 2 2 2 2 2 2 2 2 3 3 3 3 3 3 3 3 3 4 0 1 1 2 8 7 5 9 7 7 6 5 5 8 8 7 7 9 5 5 5 9 3 0 6 6 8 1 0 4 7 9 7 7 8 6 6 5 8 7 9 9 9 9 9 6 5 7 5 
6795
1 1 0 1 1 1 1 0 1 1 0 0 0 1 0 0 0 1 0 0 
0 0 0 0 0 0 0 1 1 6 1 6 6 6 6 3 3 3 3 3 3 4 4 4 4 4 4 4 4 5 5 5 5 5 5 5 5 5 0 0 3 3 4 8 1 17 13 3 1 5 8 13 17 13 13 6 5 6 9 9 3 9 0 17 13 13 8 8 9 9 13 3 13 17 17 17 8 17 9 13 
7171
0 0 0 0 0 0 0 0 0 1 1 0 0 1 1 0 0 0 0 1 0 1 0 0 1 0 0 1 1 0 
10 10 9 10 10 10 10 19 19 28 19 28 19 19 19 21 21 14 21 19 21 24 24 24 24 24 24 10 9 9 9 13 9 9 10 21 21 24 24 28 28 19 19 10 24 14 14 27 13 28 10 27 13 28 24 14 13 28 14 24 19 19 28 28 14 27 14 13 19 19 
6228
1 1 1 1 1 1 1 1 1 1 
0 0 0 0 0 0 0 0 2 0 1 1 1 2 1 1 3 2 2 2 2 2 2 2 2 2 2 3 3 3 3 3 3 3 3 4 4 4 4 4 4 4 4 4 4 4 4 5 5 5 5 5 5 5 6 6 6 6 6 6 6 6 7 7 6 7 6 0 7 7 7 7 7 7 8 8 8 8 6 8 8 8 9 2 9 9 9 0 9 9 
6366
1 0 1 0 1 0 0 1 1 1 0 0 1 1 0 1 0 1 0 1 
0 0 4 0 0 0 0 0 0 2 2 2 2 2 2 4 4 4 4 4 4 0 4 4 7 7 7 7 7 7 7 8 8 8 8 8 9 9 9 9 9 9 12 12 12 8 8 8 13 13 12 13 13 12 13 15 15 12 15 13 0 15 15 15 15 17 17 17 17 17 17 17 17 19 19 19 19 19 19 19 
5769
1 1 0 0 0 0 0 1 0 0 0 0 0 1 0 0 0 1 1 0 0 1 0 0 0 0 0 0 1 0 
0 1 1 1 1 1 1 1 1 7 7 7 7 7 7 7 7 7 7 7 7 7 7 7 7 7 7 13 13 17 13 13 13 13 13 13 18 18 18 13 13 13 18 18 18 18 18 18 21 18 21 18 0 21 21 21 21 28 0 0 0 0 0 0 28 28 28 0 28 28 
9266
1 1 1 1 1 1 1 1 0 1 
3 6 3 0 2 1 5 5 3 7 7 4 6 9 9 9 2 5 5 3 6 0 0 4 0 4 7 4 4 7 7 7 3 3 3 5 9 9 0 6 0 9 9 9 5 5 5 5 5 3 3 5 6 0 0 0 6 6 1 2 2 7 7 7 3 3 0 4 7 7 3 6 6 0 0 4 4 3 3 4 3 5 2 2 2 2 1 7 2 7 9 1 2 2 1 1 1 9 6 1 
8092
0 0 1 0 0 1 1 0 1 0 1 0 1 1 1 1 0 0 0 1 
15 6 19 10 12 13 5 5 15 5 5 14 6 13 6 13 12 5 2 15 10 10 10 14 14 14 15 19 19 15 2 15 19 19 15 5 13 13 10 10 10 6 13 13 5 5 5 5 5 15 15 2 10 14 14 10 6 6 12 12 13 5 5 5 15 15 10 19 15 15 8 10 10 10 10 19 19 19 19 19 19 5 12 12 13 13 6 2 12 5 13 13 13 6 6 12 13 13 13 13 
9178
0 0 0 1 1 1 1 1 1 1 
7 7 7 7 7 7 7 7 3 4 4 4 6 4 4 4 4 8 3 8 8 3 3 8 8 9 9 9 9 9 9 9 9 5 6 6 6 4 6 6 6 6 6 6 7 7 4 8 8 5 5 3 4 6 7 5 3 3 3 4 6 5 5 8 3 3 5 7 4 7 6 6 4 3 3 5 3 4 7 6 6 4 3 5 5 3 3 7 5 3 5 5 6 5 5 6 3 4 3 7 
9231
1 0 0 1 0 1 0 1 0 1 0 0 1 1 0 1 0 0 1 1 
5 5 5 5 5 5 5 5 19 19 19 7 7 7 7 7 7 12 13 13 12 13 12 13 12 9 9 9 9 9 9 9 15 15 18 18 18 18 18 18 18 18 18 18 5 5 7 12 12 15 15 3 7 18 0 15 3 3 3 7 18 9 15 13 3 13 15 18 7 5 18 18 7 3 3 15 3 7 7 13 18 19 13 15 15 3 3 5 15 3 15 15 9 15 15 18 3 7 3 5 
9052
1 1 1 1 1 0 1 1 1 1 
7 7 7 7 7 7 7 2 2 2 2 2 2 2 2 2 1 2 2 3 3 3 2 3 3 2 3 3 3 3 3 3 3 3 3 3 3 3 3 6 6 8 8 6 8 8 8 8 8 8 3 3 6 6 6 6 6 6 6 6 6 0 4 6 0 6 6 6 6 0 0 6 0 4 7 0 0 0 0 0 0 4 4 4 4 4 4 4 4 4 4 9 4 9 4 9 9 9 9 9 
8075
0 0 1 0 0 0 1 1 1 1 0 1 0 1 1 0 0 0 1 0 
18 18 18 18 18 18 18 2 8 8 8 8 2 8 2 8 2 2 8 6 6 6 2 6 6 2 6 6 6 6 6 14 11 6 6 6 6 6 6 7 7 7 7 7 7 7 7 7 14 7 7 14 7 7 7 7 7 7 7 7 7 7 13 7 9 7 9 7 7 9 9 9 9 13 18 13 9 13 9 9 13 13 13 13 18 13 13 18 18 13 18 18 18 18 18 18 18 18 18 18 
22339
1 0 1 1 1 1 1 1 0 1 1 1 1 0 0 0 0 1 1 1 1 1 1 1 1 1 0 1 1 1 
18 19 2 27 2 12 21 27 22 28 4 28 10 3 28 18 3 20 22 0 18 24 5 17 10 18 27 19 29 2 19 19 4 21 27 6 20 9 24 21 18 9 6 4 20 19 3 21 19 20 24 24 24 21 20 6 11 9 18 25 29 0 7 20 3 11 5 24 28 25 18 12 19 9 23 23 20 23 20 24 10 0 9 25 29 10 6 5 27 7 28 6 25 25 2 3 11 6 0 28 28 21 25 18 4 0 4 24 22 3 19 4 27 12 12 20 28 7 17 20 9 11 17 19 9 21 2 11 19 17 28 24 25 20 23 9 3 3 28 10 12 22 11 11 25 5 24 21 27 25 24 17 23 0 20 11 2 21 3 3 3 27 10 24 5 27 5 4 3 21 5 20 19 10 4 2 0 10 29 10 5 21 2 19 12 9 28 23 0 21 2 21 6 4 7 12 7 21 10 19 
29131
1 0 0 1 1 1 1 0 1 0 1 1 1 0 1 0 0 1 1 1 1 1 1 1 1 1 1 1 1 0 
18 19 21 27 5 12 21 27 22 28 4 28 10 3 28 18 3 20 22 0 18 24 5 24 10 18 27 19 4 5 19 19 4 21 27 6 20 8 24 21 18 8 6 4 8 19 11 21 19 14 24 24 24 21 8 6 11 8 18 25 4 0 18 8 3 11 5 14 28 25 18 12 19 8 23 23 20 23 8 24 10 0 26 25 4 10 6 5 27 25 28 6 25 25 0 3 11 6 0 28 28 21 25 18 4 0 4 24 22 3 19 4 27 12 12 8 28 25 17 8 26 11 17 19 26 24 5 11 26 17 28 24 25 20 23 8 3 3 28 10 12 22 11 11 25 5 24 21 27 25 24 17 23 0 8 11 5 21 3 3 3 27 10 0 5 27 5 4 3 21 5 20 19 14 26 0 0 10 4 10 5 21 24 19 12 8 28 23 0 21 21 21 6 4 25 12 25 21 10 19 
43347
1 1 1 0 1 1 1 0 1 0 0 1 1 1 1 0 1 0 1 1 1 1 0 0 1 1 1 1 1 0 
18 19 21 27 2 12 21 27 18 28 4 28 13 1 28 18 1 20 27 0 18 16 5 24 20 18 27 19 4 2 19 19 4 16 27 6 20 8 24 16 18 8 6 4 8 19 13 21 19 14 24 16 24 16 8 6 11 8 18 25 4 0 18 8 13 11 5 14 28 25 18 12 19 8 5 13 20 5 8 16 13 0 26 25 4 13 6 5 27 25 28 6 25 25 2 13 11 6 0 28 28 21 25 18 4 0 4 24 27 13 19 4 27 12 12 8 28 25 14 8 26 11 28 19 26 16 2 11 26 0 28 24 25 20 1 8 1 13 28 14 12 27 11 11 25 5 24 21 27 25 24 0 5 0 8 11 2 16 13 13 13 27 20 24 5 27 5 4 1 6 1 20 19 14 26 2 0 20 4 20 5 21 2 19 12 8 28 13 0 21 2 21 6 4 25 12 25 21 20 19 
32200
0 0 0 0 1 1 1 0 1 0 1 1 1 1 1 0 1 1 1 1 1 1 1 1 1 1 0 1 1 1 
18 19 21 27 21 12 21 27 22 28 4 28 13 13 28 18 13 20 22 27 18 16 5 24 10 5 27 19 29 18 19 19 4 16 27 6 20 8 24 16 18 8 6 4 8 19 13 21 19 14 24 16 24 16 8 6 11 8 18 25 29 17 18 8 13 11 5 14 28 25 18 12 19 8 23 23 20 23 8 16 10 17 8 25 29 13 6 5 27 25 28 6 25 25 5 13 11 6 17 28 28 21 25 18 4 24 4 24 22 13 19 4 27 12 12 8 28 25 17 8 14 11 17 19 4 16 21 11 19 17 28 24 25 20 23 8 13 13 28 10 12 22 11 11 25 5 24 16 27 25 24 17 23 17 8 11 5 16 13 13 13 27 10 24 5 27 5 4 13 21 5 20 19 14 4 5 27 10 29 10 5 21 21 19 12 8 28 23 17 21 21 21 6 4 25 12 25 21 10 19 
22768
1 0 1 1 1 1 1 1 1 0 1 1 1 1 0 1 1 1 1 1 1 1 0 1 1 0 1 1 1 0 
18 19 21 27 2 12 15 27 18 28 4 28 13 13 28 18 3 20 27 0 18 10 5 24 10 18 27 19 4 2 19 19 4 16 27 6 20 8 24 16 18 8 6 4 8 19 13 21 19 20 24 16 24 16 8 6 11 8 18 7 4 0 7 8 13 11 5 17 28 12 18 12 19 8 23 23 20 23 8 16 10 0 26 7 4 13 6 5 27 7 28 6 7 11 2 3 11 6 0 28 28 15 12 18 4 0 4 24 27 3 19 4 27 12 12 8 28 7 17 8 26 11 17 19 26 16 2 11 26 17 28 24 11 20 23 8 3 3 28 10 12 27 11 11 11 5 24 15 27 7 24 17 23 0 8 11 2 15 3 13 13 27 10 24 5 27 5 4 3 21 5 20 19 10 26 2 0 10 4 10 5 21 2 19 12 8 28 23 0 21 2 21 6 4 7 12 7 15 10 19 
28693
1 1 1 0 1 1 1 1 1 1 1 0 1 0 1 0 1 0 1 1 1 0 0 1 1 1 0 1 1 0 
18 19 2 27 2 12 2 27 18 28 4 28 10 1 28 18 1 20 27 0 18 16 5 24 10 18 27 19 4 2 19 19 4 16 27 6 20 8 24 16 18 9 6 4 8 19 8 2 19 14 24 16 24 16 8 6 25 9 18 25 4 0 7 8 20 25 5 14 28 25 18 12 19 9 23 23 20 23 8 16 10 0 9 25 4 10 6 5 27 7 28 6 25 25 2 1 28 6 0 28 28 16 25 18 4 0 4 24 27 1 19 4 27 12 12 8 28 7 14 8 9 25 28 19 9 16 2 12 19 0 28 24 25 20 23 9 1 8 28 10 12 27 12 25 25 5 24 7 27 25 24 0 23 0 8 28 2 16 8 1 1 27 10 24 5 27 5 4 1 2 1 20 19 14 4 2 0 10 4 10 5 16 2 19 12 8 28 23 0 2 2 2 6 4 7 12 7 2 10 19 
42900
1 0 1 0 1 1 1 1 0 0 1 1 1 1 1 0 0 1 0 0 1 0 1 1 0 1 1 1 1 0 
7 6 2 27 2 12 2 27 22 28 4 28 13 13 28 7 13 20 22 0 27 22 5 0 10 27 27 14 4 2 6 26 4 22 27 6 20 20 27 22 7 20 6 4 20 26 13 2 14 14 0 22 0 2 11 6 11 26 22 25 4 0 7 20 13 11 5 14 28 25 7 12 6 20 23 23 20 23 20 22 10 0 26 25 4 13 6 5 27 7 28 6 25 25 0 13 11 6 0 28 28 2 25 7 4 0 4 27 22 13 14 4 27 12 12 20 28 7 17 20 26 11 17 6 26 22 2 11 26 17 28 0 25 20 23 20 13 13 28 10 12 22 11 11 25 5 27 2 27 25 27 17 23 0 20 20 2 2 13 13 13 27 10 0 5 27 5 4 13 2 5 20 28 14 26 2 0 10 4 10 5 2 2 6 12 20 28 23 0 2 2 2 6 4 7 12 7 2 10 6 
31842
1 0 1 0 0 1 1 0 1 0 1 1 0 1 1 0 0 1 1 1 1 1 1 0 1 1 1 0 1 1 
18 19 21 22 2 6 21 28 22 28 29 28 13 13 28 18 13 20 22 0 18 21 5 24 10 18 24 19 29 2 19 19 26 21 28 6 20 8 24 21 18 8 6 26 8 19 13 21 19 14 24 24 24 21 8 6 11 8 18 25 29 0 25 8 13 11 5 14 28 25 18 6 19 8 5 13 20 5 8 24 10 0 26 25 29 13 6 5 24 25 28 6 25 25 2 13 11 6 0 28 28 21 25 18 29 0 29 24 22 13 19 29 18 6 11 8 28 25 17 29 26 11 17 19 26 21 2 11 26 17 28 24 25 20 5 8 13 13 28 10 11 22 11 11 25 5 24 21 18 25 24 17 10 0 8 11 2 21 13 13 13 0 10 24 5 24 5 29 13 21 5 20 19 14 26 2 0 10 29 10 5 21 2 19 11 8 28 10 0 21 2 21 6 29 25 6 25 21 10 19 
22101
1 0 1 1 1 0 1 1 1 0 1 1 1 0 0 0 1 1 1 1 1 1 1 1 1 0 1 1 1 0 
18 19 21 27 12 12 21 27 22 28 4 28 10 3 28 18 3 20 22 0 18 16 23 24 10 18 27 19 4 2 19 19 4 16 27 6 20 8 24 16 18 8 6 4 8 19 3 21 19 20 24 16 24 16 8 6 11 8 18 7 4 0 7 8 3 11 23 17 28 2 18 12 19 8 23 23 20 23 8 16 10 0 26 7 4 10 6 2 27 7 28 6 7 11 2 3 11 6 0 28 28 21 12 18 4 0 4 24 22 3 19 4 27 12 12 8 28 7 17 8 26 11 17 19 26 16 2 11 26 17 28 24 11 20 23 8 3 3 28 10 12 22 11 11 11 2 24 21 27 7 24 17 23 0 8 11 2 16 3 3 3 27 10 24 23 27 23 4 3 21 23 20 19 10 26 2 0 10 4 10 2 21 2 19 12 8 28 23 0 21 2 21 6 4 7 12 7 21 10 19 
29247
1 0 1 1 1 1 1 0 0 1 1 1 1 0 0 0 1 1 1 1 1 1 1 1 1 1 1 1 1 0 
18 19 21 27 2 12 21 27 22 28 4 28 10 3 28 18 3 20 22 0 18 16 5 24 10 18 27 19 4 2 19 19 4 16 27 6 20 9 24 16 18 9 6 4 20 19 3 21 19 20 24 16 24 16 20 6 11 9 18 25 4 0 18 20 3 11 5 17 28 25 18 12 19 9 23 23 20 23 20 16 10 0 9 25 4 10 6 5 27 25 28 6 25 25 2 3 11 6 0 28 28 21 25 18 4 0 4 24 22 3 19 4 27 12 12 20 28 25 17 20 26 11 17 19 26 16 2 11 26 17 28 24 25 20 27 9 3 3 28 10 12 22 11 11 25 5 24 21 27 25 24 17 23 0 20 11 2 16 3 3 3 27 10 24 5 27 5 4 3 21 5 20 19 10 26 2 0 10 4 10 5 21 2 19 12 9 28 23 0 21 2 21 6 4 25 12 25 21 10 19 
41528
1 0 1 0 1 1 1 0 1 0 1 1 1 1 1 0 1 0 1 1 1 0 0 1 1 0 0 1 1 0 
18 19 2 27 2 12 2 27 2 28 4 28 13 13 28 18 13 20 27 0 18 16 5 24 10 18 27 19 4 2 19 19 4 16 27 6 20 8 24 16 18 8 6 4 8 19 13 2 19 14 24 16 24 16 8 6 11 8 18 11 4 0 18 8 13 11 5 14 28 12 18 12 19 8 23 23 20 23 8 16 10 0 8 11 4 13 6 5 27 18 28 6 11 11 2 13 11 6 0 28 28 16 12 18 4 0 4 24 27 13 19 4 27 12 12 8 28 11 14 8 14 11 28 19 4 16 2 11 19 0 28 24 11 20 23 8 13 13 28 10 12 27 11 11 11 5 24 16 27 11 24 0 23 0 8 11 2 16 13 13 13 27 10 24 5 27 5 4 13 2 5 20 19 14 4 2 0 10 4 10 5 16 2 19 12 8 28 23 0 2 2 18 6 4 18 12 18 2 10 19 
32471
1 0 1 0 1 1 1 1 1 1 1 0 1 1 0 0 1 0 1 1 1 0 0 1 1 1 1 1 1 0 
18 19 2 27 2 12 2 27 27 28 4 28 13 13 28 18 13 20 27 0 18 16 5 24 10 18 27 19 4 2 19 23 4 16 27 6 20 8 24 16 18 9 6 26 8 19 13 16 19 10 24 16 24 16 8 6 18 9 18 25 4 0 7 8 13 12 5 19 28 25 18 12 19 9 23 23 20 23 8 16 10 0 9 25 4 13 19 5 27 7 28 6 25 25 2 13 27 6 0 28 28 16 25 18 4 0 4 24 27 13 19 4 27 12 12 8 28 7 10 8 26 25 28 19 26 16 2 12 26 0 28 24 25 20 23 9 13 13 28 10 12 18 28 25 25 5 24 16 27 25 24 0 19 0 8 28 2 16 13 13 13 27 10 24 5 27 5 4 13 16 5 20 19 10 26 2 0 10 4 10 5 16 2 19 12 8 28 23 0 2 2 16 6 4 7 12 7 2 10 19 
22409
1 0 1 1 1 0 1 1 1 0 1 0 1 1 1 0 1 0 1 1 1 1 1 1 1 1 1 1 1 1 
18 19 21 27 2 12 21 27 22 28 4 28 13 13 28 18 3 20 22 0 18 16 23 24 10 18 27 19 29 2 19 19 4 16 27 6 20 8 24 16 18 8 6 2 8 19 13 21 19 14 24 16 24 16 8 6 25 8 18 7 29 0 7 8 13 25 23 14 28 25 18 12 19 8 23 23 20 23 8 16 10 0 26 25 29 13 6 2 27 7 28 6 25 25 2 3 28 6 0 28 28 21 25 18 4 0 4 24 22 3 19 4 27 12 12 8 28 7 14 8 26 25 28 19 26 16 4 12 26 0 28 24 25 20 23 8 3 3 28 10 12 22 12 25 25 2 24 21 27 25 24 0 23 0 8 28 2 16 3 13 13 27 10 24 23 27 23 4 3 21 23 20 19 14 26 2 0 10 29 10 2 21 2 19 12 8 28 23 0 21 2 21 6 4 7 12 7 21 10 19 
28962
1 0 1 0 1 0 1 1 1 0 1 1 1 1 0 0 0 1 1 1 1 1 1 1 1 1 1 1 1 0 
18 19 21 27 2 12 21 27 22 28 4 28 13 13 28 18 13 20 22 0 18 21 23 24 10 18 27 19 4 2 19 19 4 21 27 6 20 8 24 21 18 8 6 4 8 19 13 21 19 20 24 24 8 21 8 6 11 8 18 7 4 0 7 24 13 11 23 17 28 25 18 12 19 8 23 23 20 23 8 24 10 0 26 25 4 13 6 2 27 7 28 6 25 25 2 13 11 6 0 28 28 21 25 18 4 0 4 24 22 13 19 4 27 12 12 8 28 7 17 8 26 11 17 19 26 21 2 11 26 17 28 24 25 20 23 8 13 13 28 10 12 22 11 11 25 2 24 21 27 25 24 17 23 0 8 11 2 21 13 13 13 27 10 24 23 27 23 4 13 21 23 20 19 10 26 2 0 10 4 10 2 21 2 19 12 8 28 23 0 21 2 21 6 4 7 12 7 21 10 19 
42737
1 0 1 0 1 1 1 1 1 0 0 1 0 1 1 0 0 0 1 1 1 0 1 1 1 1 1 1 1 0 
18 19 2 27 2 6 2 27 22 28 4 28 13 13 28 18 13 20 22 0 18 24 5 24 23 18 27 19 4 2 19 19 4 24 27 6 25 8 24 24 18 8 6 4 8 19 13 2 19 14 24 24 24 24 8 6 11 8 18 25 4 0 7 8 13 11 5 14 28 25 18 6 19 8 23 23 20 23 8 24 23 0 26 25 4 13 6 5 27 7 28 6 25 25 0 13 11 6 0 28 28 2 25 18 4 0 4 24 22 13 19 4 27 6 11 8 28 7 14 8 26 11 28 19 26 24 2 11 26 0 28 24 25 20 23 8 13 13 28 14 11 22 11 11 25 5 24 2 27 20 24 0 23 0 8 11 2 2 13 13 13 27 23 24 5 27 5 4 13 2 5 20 19 14 26 2 0 20 4 20 5 2 2 19 11 8 28 23 0 2 2 2 6 4 7 6 7 2 23 19 
33156
1 0 1 0 1 1 1 1 0 0 1 1 1 1 1 0 1 0 0 1 1 1 1 1 0 1 1 1 1 0 
7 19 21 27 2 12 21 27 22 28 4 28 13 13 28 7 13 20 22 0 27 16 5 0 10 27 27 19 4 2 19 19 4 16 27 6 20 20 16 16 7 20 6 4 20 19 13 21 19 14 0 16 2 16 20 6 11 26 22 7 4 0 7 20 13 11 5 14 28 25 7 12 19 20 23 23 20 23 20 16 10 0 26 25 4 13 6 5 27 7 28 6 25 25 2 13 11 6 0 28 28 21 25 7 4 0 4 27 22 13 19 4 27 12 12 20 28 7 14 20 26 11 28 19 26 16 2 11 26 0 28 21 25 20 23 20 13 13 28 10 12 22 11 11 25 5 16 21 27 25 27 0 23 0 20 11 2 16 13 13 13 27 10 2 5 27 5 4 13 21 5 20 19 14 26 2 0 10 4 10 5 21 2 19 22 20 28 23 0 21 2 21 6 4 7 12 7 21 10 19 
